\ This file has been generated by DOcplex
\ ENCODING=ISO-8859-1
\Problem name: opt_problem

Minimize
 obj: 0.040268456376 x0 + 0.040268456376 x1 + 0.093959731544 x2
      - 0.040268456376 x3 - 0.013422818792 x4 - 0.013422818792 x5
      - 0.053691275168 x6 + [ 0.268456375839 x0^2 + 0.429530201342 x0*x1
      - 0.053691275168 x0*x2 + 0.053691275168 x0*x3 - 0.751677852349 x0*x4
      - 0.053691275168 x0*x5 + 0.322147651007 x0*x6 - 0.644295302013 x1*x2
      - 0.161073825503 x1*x3 - 0.375838926174 x1*x4 + 0.161073825503 x1*x5
      + 0.214765100671 x1*x6 + 0.107382550336 x2^2 - 0.107382550336 x2*x3
      + 0.483221476510 x2*x5 + 0.214765100671 x2*x6 - 0.322147651007 x3^2
      + 0.161073825503 x3*x4 + 0.322147651007 x3*x5 - 0.107382550336 x3*x6
      - 0.214765100671 x4^2 + 0.375838926174 x4*x5 + 0.107382550336 x4*x6
      - 0.429530201342 x5^2 - 0.429530201342 x5*x6 + 0.053691275168 x6^2 ]/2
Subject To
 c0: x1 - 2 x3 + 2 x4 = 1
 c1: - x2 + x4 + x6 = 1

Bounds
 0 <= x0 <= 1
 0 <= x1 <= 1
 0 <= x2 <= 1
 0 <= x3 <= 1
 0 <= x4 <= 1
 0 <= x5 <= 1
 0 <= x6 <= 1

Binaries
 x0 x1 x2 x3 x4 x5 x6
End
